
Gurobi 6.5.1 (mac64) logging started Tue May  3 00:45:56 2016

Optimize a model with 2 rows, 3 columns and 5 nonzeros
Coefficient statistics:
  Matrix range    [1e+00, 3e+00]
  Objective range [1e+00, 2e+00]
  Bounds range    [1e+00, 1e+00]
  RHS range       [1e+00, 4e+00]
Found heuristic solution: objective 2
Presolve removed 2 rows and 3 columns
Presolve time: 0.01s
Presolve: All rows and columns removed

Explored 0 nodes (0 simplex iterations) in 0.01 seconds
Thread count was 1 (of 4 available processors)

Optimal solution found (tolerance 1.00e-04)
Best objective 3.000000000000e+00, best bound 3.000000000000e+00, gap 0.0%

Gurobi 6.5.1 (mac64) logging started Tue May  3 00:46:32 2016

Optimize a model with 2 rows, 3 columns and 5 nonzeros
Coefficient statistics:
  Matrix range    [1e+00, 3e+00]
  Objective range [1e+00, 2e+00]
  Bounds range    [1e+00, 1e+00]
  RHS range       [1e+00, 4e+00]
Found heuristic solution: objective 2
Presolve removed 2 rows and 3 columns
Presolve time: 0.00s
Presolve: All rows and columns removed

Explored 0 nodes (0 simplex iterations) in 0.00 seconds
Thread count was 1 (of 4 available processors)

Optimal solution found (tolerance 1.00e-04)
Best objective 3.000000000000e+00, best bound 3.000000000000e+00, gap 0.0%

Gurobi 6.5.1 (mac64) logging started Tue May  3 00:46:53 2016

Optimize a model with 2 rows, 3 columns and 5 nonzeros
Coefficient statistics:
  Matrix range    [1e+00, 3e+00]
  Objective range [1e+00, 2e+00]
  Bounds range    [1e+00, 1e+00]
  RHS range       [1e+00, 4e+00]
Found heuristic solution: objective 2
Presolve removed 2 rows and 3 columns
Presolve time: 0.00s
Presolve: All rows and columns removed

Explored 0 nodes (0 simplex iterations) in 0.00 seconds
Thread count was 1 (of 4 available processors)

Optimal solution found (tolerance 1.00e-04)
Best objective 3.000000000000e+00, best bound 3.000000000000e+00, gap 0.0%

Gurobi 6.5.1 (mac64) logging started Tue May  3 00:46:58 2016

Optimize a model with 2 rows, 3 columns and 5 nonzeros
Coefficient statistics:
  Matrix range    [1e+00, 3e+00]
  Objective range [1e+00, 2e+00]
  Bounds range    [1e+00, 1e+00]
  RHS range       [1e+00, 4e+00]
Found heuristic solution: objective 2
Presolve removed 2 rows and 3 columns
Presolve time: 0.00s
Presolve: All rows and columns removed

Explored 0 nodes (0 simplex iterations) in 0.00 seconds
Thread count was 1 (of 4 available processors)

Optimal solution found (tolerance 1.00e-04)
Best objective 3.000000000000e+00, best bound 3.000000000000e+00, gap 0.0%

Gurobi 6.5.1 (mac64) logging started Tue May  3 00:47:19 2016

Optimize a model with 2 rows, 3 columns and 5 nonzeros
Coefficient statistics:
  Matrix range    [1e+00, 3e+00]
  Objective range [1e+00, 2e+00]
  Bounds range    [1e+00, 1e+00]
  RHS range       [1e+00, 4e+00]
Found heuristic solution: objective 2
Presolve removed 2 rows and 3 columns
Presolve time: 0.00s
Presolve: All rows and columns removed

Explored 0 nodes (0 simplex iterations) in 0.00 seconds
Thread count was 1 (of 4 available processors)

Optimal solution found (tolerance 1.00e-04)
Best objective 3.000000000000e+00, best bound 3.000000000000e+00, gap 0.0%

Gurobi 6.5.1 (mac64) logging started Tue May  3 00:48:27 2016

Optimize a model with 2 rows, 3 columns and 5 nonzeros
Coefficient statistics:
  Matrix range    [1e+00, 3e+00]
  Objective range [1e+00, 2e+00]
  Bounds range    [1e+00, 1e+00]
  RHS range       [1e+00, 4e+00]
Found heuristic solution: objective 2
Presolve removed 2 rows and 3 columns
Presolve time: 0.00s
Presolve: All rows and columns removed

Explored 0 nodes (0 simplex iterations) in 0.00 seconds
Thread count was 1 (of 4 available processors)

Optimal solution found (tolerance 1.00e-04)
Best objective 3.000000000000e+00, best bound 3.000000000000e+00, gap 0.0%

Gurobi 6.5.1 (mac64) logging started Tue May  3 00:49:11 2016

Optimize a model with 2 rows, 3 columns and 5 nonzeros
Coefficient statistics:
  Matrix range    [1e+00, 3e+00]
  Objective range [1e+00, 2e+00]
  Bounds range    [1e+00, 1e+00]
  RHS range       [1e+00, 4e+00]
Found heuristic solution: objective 2
Presolve removed 2 rows and 3 columns
Presolve time: 0.00s
Presolve: All rows and columns removed

Explored 0 nodes (0 simplex iterations) in 0.00 seconds
Thread count was 1 (of 4 available processors)

Optimal solution found (tolerance 1.00e-04)
Best objective 3.000000000000e+00, best bound 3.000000000000e+00, gap 0.0%

Gurobi 6.5.1 (mac64) logging started Tue May  3 00:49:45 2016

Optimize a model with 2 rows, 3 columns and 5 nonzeros
Coefficient statistics:
  Matrix range    [1e+00, 3e+00]
  Objective range [1e+00, 2e+00]
  Bounds range    [1e+00, 1e+00]
  RHS range       [1e+00, 4e+00]
Found heuristic solution: objective 2
Presolve removed 2 rows and 3 columns
Presolve time: 0.00s
Presolve: All rows and columns removed

Explored 0 nodes (0 simplex iterations) in 0.00 seconds
Thread count was 1 (of 4 available processors)

Optimal solution found (tolerance 1.00e-04)
Best objective 3.000000000000e+00, best bound 3.000000000000e+00, gap 0.0%

Gurobi 6.5.1 (mac64) logging started Tue May  3 01:48:50 2016

Optimize a model with 16 rows, 8 columns and 32 nonzeros
Coefficient statistics:
  Matrix range    [1e+00, 6e+01]
  Objective range [2e+00, 6e+01]
  Bounds range    [0e+00, 0e+00]
  RHS range       [2e+00, 6e+01]
Found heuristic solution: objective 3
Presolve removed 8 rows and 0 columns
Presolve time: 0.00s
Presolved: 8 rows, 8 columns, 24 nonzeros
Variable types: 0 continuous, 8 integer (4 binary)

Root relaxation: objective 0.000000e+00, 7 iterations, 0.00 seconds

    Nodes    |    Current Node    |     Objective Bounds      |     Work
 Expl Unexpl |  Obj  Depth IntInf | Incumbent    BestBd   Gap | It/Node Time

     0     0    0.00000    0    1    3.00000    0.00000   100%     -    0s
     0     0     cutoff    0         3.00000    1.00000  66.7%     -    0s

Cutting planes:
  Gomory: 1
  Cover: 1
  Implied bound: 1

Explored 0 nodes (11 simplex iterations) in 0.02 seconds
Thread count was 4 (of 4 available processors)

Optimal solution found (tolerance 1.00e-04)
Best objective 3.000000000000e+00, best bound 3.000000000000e+00, gap 0.0%

Gurobi 6.5.1 (mac64) logging started Tue May  3 01:49:06 2016

Optimize a model with 16 rows, 8 columns and 32 nonzeros
Coefficient statistics:
  Matrix range    [1e+00, 6e+01]
  Objective range [2e+00, 6e+01]
  Bounds range    [0e+00, 0e+00]
  RHS range       [2e+00, 6e+01]
Found heuristic solution: objective 3
Presolve removed 8 rows and 0 columns
Presolve time: 0.00s
Presolved: 8 rows, 8 columns, 24 nonzeros
Variable types: 0 continuous, 8 integer (4 binary)

Root relaxation: objective 0.000000e+00, 7 iterations, 0.00 seconds

    Nodes    |    Current Node    |     Objective Bounds      |     Work
 Expl Unexpl |  Obj  Depth IntInf | Incumbent    BestBd   Gap | It/Node Time

     0     0    0.00000    0    1    3.00000    0.00000   100%     -    0s
     0     0     cutoff    0         3.00000    1.00000  66.7%     -    0s

Cutting planes:
  Gomory: 1
  Cover: 1
  Implied bound: 1

Explored 0 nodes (11 simplex iterations) in 0.00 seconds
Thread count was 4 (of 4 available processors)

Optimal solution found (tolerance 1.00e-04)
Best objective 3.000000000000e+00, best bound 3.000000000000e+00, gap 0.0%

Gurobi 6.5.1 (mac64) logging started Tue May  3 02:23:36 2016

Optimize a model with 16 rows, 8 columns and 32 nonzeros
Coefficient statistics:
  Matrix range    [1e+00, 6e+01]
  Objective range [2e+00, 6e+01]
  Bounds range    [0e+00, 0e+00]
  RHS range       [2e+00, 6e+01]
Found heuristic solution: objective 3
Presolve removed 8 rows and 0 columns
Presolve time: 0.00s
Presolved: 8 rows, 8 columns, 24 nonzeros
Variable types: 0 continuous, 8 integer (4 binary)

Root relaxation: objective 0.000000e+00, 7 iterations, 0.00 seconds

    Nodes    |    Current Node    |     Objective Bounds      |     Work
 Expl Unexpl |  Obj  Depth IntInf | Incumbent    BestBd   Gap | It/Node Time

     0     0    0.00000    0    1    3.00000    0.00000   100%     -    0s
     0     0     cutoff    0         3.00000    1.00000  66.7%     -    0s

Cutting planes:
  Gomory: 1
  Cover: 1
  Implied bound: 1

Explored 0 nodes (11 simplex iterations) in 0.00 seconds
Thread count was 4 (of 4 available processors)

Optimal solution found (tolerance 1.00e-04)
Best objective 3.000000000000e+00, best bound 3.000000000000e+00, gap 0.0%

Gurobi 6.5.1 (mac64) logging started Tue May  3 02:29:57 2016

Optimize a model with 24 rows, 8 columns and 40 nonzeros
Coefficient statistics:
  Matrix range    [1e+00, 6e+01]
  Objective range [2e+00, 6e+01]
  Bounds range    [0e+00, 0e+00]
  RHS range       [1e+00, 6e+01]
Found heuristic solution: objective 3
Presolve removed 16 rows and 0 columns
Presolve time: 0.00s
Presolved: 8 rows, 8 columns, 24 nonzeros
Variable types: 0 continuous, 8 integer (4 binary)

Root relaxation: objective 0.000000e+00, 7 iterations, 0.00 seconds

    Nodes    |    Current Node    |     Objective Bounds      |     Work
 Expl Unexpl |  Obj  Depth IntInf | Incumbent    BestBd   Gap | It/Node Time

     0     0    0.00000    0    1    3.00000    0.00000   100%     -    0s
     0     0     cutoff    0         3.00000    1.00000  66.7%     -    0s

Cutting planes:
  Gomory: 1
  Cover: 1
  Implied bound: 1

Explored 0 nodes (11 simplex iterations) in 0.00 seconds
Thread count was 4 (of 4 available processors)

Optimal solution found (tolerance 1.00e-04)
Best objective 3.000000000000e+00, best bound 3.000000000000e+00, gap 0.0%

Gurobi 6.5.1 (mac64) logging started Tue May  3 02:37:34 2016

Optimize a model with 24 rows, 8 columns and 40 nonzeros
Coefficient statistics:
  Matrix range    [1e+00, 6e+01]
  Objective range [2e+00, 6e+01]
  Bounds range    [0e+00, 0e+00]
  RHS range       [1e+00, 6e+01]
Found heuristic solution: objective 3
Presolve removed 16 rows and 0 columns
Presolve time: 0.00s
Presolved: 8 rows, 8 columns, 24 nonzeros
Variable types: 0 continuous, 8 integer (4 binary)

Root relaxation: objective 0.000000e+00, 7 iterations, 0.00 seconds

    Nodes    |    Current Node    |     Objective Bounds      |     Work
 Expl Unexpl |  Obj  Depth IntInf | Incumbent    BestBd   Gap | It/Node Time

     0     0    0.00000    0    1    3.00000    0.00000   100%     -    0s
     0     0     cutoff    0         3.00000    1.00000  66.7%     -    0s

Cutting planes:
  Gomory: 1
  Cover: 1
  Implied bound: 1

Explored 0 nodes (11 simplex iterations) in 0.00 seconds
Thread count was 4 (of 4 available processors)

Optimal solution found (tolerance 1.00e-04)
Best objective 3.000000000000e+00, best bound 3.000000000000e+00, gap 0.0%

Gurobi 6.5.1 (mac64) logging started Tue May  3 02:37:45 2016

Optimize a model with 24 rows, 8 columns and 40 nonzeros
Coefficient statistics:
  Matrix range    [1e+00, 6e+01]
  Objective range [2e+00, 6e+01]
  Bounds range    [0e+00, 0e+00]
  RHS range       [1e+00, 6e+01]
Found heuristic solution: objective 3
Presolve removed 16 rows and 1 columns
Presolve time: 0.00s
Presolved: 8 rows, 7 columns, 22 nonzeros
Variable types: 0 continuous, 7 integer (3 binary)

Root relaxation: objective 0.000000e+00, 6 iterations, 0.00 seconds

    Nodes    |    Current Node    |     Objective Bounds      |     Work
 Expl Unexpl |  Obj  Depth IntInf | Incumbent    BestBd   Gap | It/Node Time

     0     0    0.00000    0    2    3.00000    0.00000   100%     -    0s
     0     0    0.00000    0    7    3.00000    0.00000   100%     -    0s
     0     0    0.00000    0    3    3.00000    0.00000   100%     -    0s
     0     1    0.00000    0    3    3.00000    0.00000   100%     -    0s

Cutting planes:
  Cover: 1
  Clique: 1

Explored 3 nodes (15 simplex iterations) in 0.01 seconds
Thread count was 4 (of 4 available processors)

Optimal solution found (tolerance 1.00e-04)
Best objective 3.000000000000e+00, best bound 3.000000000000e+00, gap 0.0%

Gurobi 6.5.1 (mac64) logging started Wed May  4 23:56:31 2016

Optimize a model with 16 rows, 8 columns and 32 nonzeros
Coefficient statistics:
  Matrix range    [1e+00, 6e+01]
  Objective range [2e+00, 6e+01]
  Bounds range    [0e+00, 0e+00]
  RHS range       [2e+00, 6e+01]
Found heuristic solution: objective 3
Presolve removed 8 rows and 0 columns
Presolve time: 0.01s
Presolved: 8 rows, 8 columns, 24 nonzeros
Variable types: 0 continuous, 8 integer (4 binary)

Root relaxation: objective 0.000000e+00, 7 iterations, 0.00 seconds

    Nodes    |    Current Node    |     Objective Bounds      |     Work
 Expl Unexpl |  Obj  Depth IntInf | Incumbent    BestBd   Gap | It/Node Time

     0     0    0.00000    0    1    3.00000    0.00000   100%     -    0s
     0     0     cutoff    0         3.00000    1.00000  66.7%     -    0s

Cutting planes:
  Gomory: 1
  Cover: 1
  Implied bound: 1

Explored 0 nodes (11 simplex iterations) in 0.02 seconds
Thread count was 4 (of 4 available processors)

Optimal solution found (tolerance 1.00e-04)
Best objective 3.000000000000e+00, best bound 3.000000000000e+00, gap 0.0%

Gurobi 6.5.1 (mac64) logging started Thu May  5 23:39:45 2016


Gurobi 6.5.1 (mac64) logging started Thu May  5 23:40:16 2016


Gurobi 6.5.1 (mac64) logging started Thu May  5 23:53:33 2016


Gurobi 6.5.1 (mac64) logging started Thu May  5 23:55:25 2016


Gurobi 6.5.1 (mac64) logging started Thu May  5 23:56:01 2016


Gurobi 6.5.1 (mac64) logging started Thu May  5 23:56:25 2016


Gurobi 6.5.1 (mac64) logging started Thu May  5 23:58:01 2016


Gurobi 6.5.1 (mac64) logging started Thu May  5 23:59:00 2016


Gurobi 6.5.1 (mac64) logging started Thu May  5 23:59:17 2016

Optimize a model with 30 rows, 480 columns and 90 nonzeros
Coefficient statistics:
  Matrix range    [1e+00, 6e+01]
  Objective range [1e+00, 6e+01]
  Bounds range    [0e+00, 0e+00]
  RHS range       [2e+00, 1e+01]
Found heuristic solution: objective 0
Presolve removed 30 rows and 480 columns
Presolve time: 0.01s
Presolve: All rows and columns removed

Explored 0 nodes (0 simplex iterations) in 0.01 seconds
Thread count was 1 (of 4 available processors)

Optimal solution found (tolerance 1.00e-04)
Best objective 0.000000000000e+00, best bound 0.000000000000e+00, gap 0.0%

Gurobi 6.5.1 (mac64) logging started Fri May  6 00:01:28 2016

Optimize a model with 30 rows, 480 columns and 90 nonzeros
Coefficient statistics:
  Matrix range    [1e+00, 6e+01]
  Objective range [1e+00, 6e+01]
  Bounds range    [0e+00, 0e+00]
  RHS range       [2e+00, 5e+00]
Found heuristic solution: objective 0
Presolve removed 30 rows and 480 columns
Presolve time: 0.00s
Presolve: All rows and columns removed

Explored 0 nodes (0 simplex iterations) in 0.00 seconds
Thread count was 1 (of 4 available processors)

Optimal solution found (tolerance 1.00e-04)
Best objective 0.000000000000e+00, best bound 0.000000000000e+00, gap 0.0%

Gurobi 6.5.1 (mac64) logging started Fri May  6 00:01:40 2016

Optimize a model with 30 rows, 480 columns and 90 nonzeros
Coefficient statistics:
  Matrix range    [1e+00, 6e+01]
  Objective range [1e+00, 6e+01]
  Bounds range    [0e+00, 0e+00]
  RHS range       [1e+00, 5e+00]
Found heuristic solution: objective 0
Presolve removed 30 rows and 480 columns
Presolve time: 0.00s
Presolve: All rows and columns removed

Explored 0 nodes (0 simplex iterations) in 0.00 seconds
Thread count was 1 (of 4 available processors)

Optimal solution found (tolerance 1.00e-04)
Best objective 0.000000000000e+00, best bound 0.000000000000e+00, gap 0.0%

Gurobi 6.5.1 (mac64) logging started Fri May  6 00:02:36 2016


Gurobi 6.5.1 (mac64) logging started Fri May  6 00:04:54 2016

Optimize a model with 30 rows, 255 columns and 90 nonzeros
Coefficient statistics:
  Matrix range    [1e+00, 6e+01]
  Objective range [1e+00, 6e+01]
  Bounds range    [0e+00, 0e+00]
  RHS range       [1e+00, 5e+00]
Found heuristic solution: objective 0
Presolve removed 30 rows and 255 columns
Presolve time: 0.00s
Presolve: All rows and columns removed

Explored 0 nodes (0 simplex iterations) in 0.00 seconds
Thread count was 1 (of 4 available processors)

Optimal solution found (tolerance 1.00e-04)
Best objective 0.000000000000e+00, best bound 0.000000000000e+00, gap 0.0%

Gurobi 6.5.1 (mac64) logging started Fri May  6 00:05:03 2016


Gurobi 6.5.1 (mac64) logging started Fri May  6 00:13:44 2016

Optimize a model with 30 rows, 255 columns and 90 nonzeros
Coefficient statistics:
  Matrix range    [1e+00, 3e+01]
  Objective range [1e+00, 3e+01]
  Bounds range    [0e+00, 0e+00]
  RHS range       [1e+00, 5e+00]
Found heuristic solution: objective 0
Presolve removed 30 rows and 255 columns
Presolve time: 0.00s
Presolve: All rows and columns removed

Explored 0 nodes (0 simplex iterations) in 0.00 seconds
Thread count was 1 (of 4 available processors)

Optimal solution found (tolerance 1.00e-04)
Best objective 0.000000000000e+00, best bound 0.000000000000e+00, gap 0.0%

Gurobi 6.5.1 (mac64) logging started Fri May  6 00:19:21 2016


Gurobi 6.5.1 (mac64) logging started Fri May  6 00:19:48 2016


Gurobi 6.5.1 (mac64) logging started Fri May  6 00:20:20 2016


Gurobi 6.5.1 (mac64) logging started Fri May  6 00:20:39 2016

Optimize a model with 30 rows, 31 columns and 90 nonzeros
Coefficient statistics:
  Matrix range    [1e+00, 3e+01]
  Objective range [1e+00, 3e+01]
  Bounds range    [0e+00, 0e+00]
  RHS range       [1e+00, 5e+00]
Found heuristic solution: objective 17
Presolve removed 30 rows and 31 columns
Presolve time: 0.00s
Presolve: All rows and columns removed

Explored 0 nodes (0 simplex iterations) in 0.00 seconds
Thread count was 1 (of 4 available processors)

Optimal solution found (tolerance 1.00e-04)
Best objective 0.000000000000e+00, best bound 0.000000000000e+00, gap 0.0%

Gurobi 6.5.1 (mac64) logging started Fri May  6 00:21:21 2016

Optimize a model with 122 rows, 123 columns and 366 nonzeros
Coefficient statistics:
  Matrix range    [1e+00, 3e+01]
  Objective range [1e+00, 3e+01]
  Bounds range    [0e+00, 0e+00]
  RHS range       [1e+00, 5e+00]
Found heuristic solution: objective 90
Presolve removed 122 rows and 123 columns
Presolve time: 0.00s
Presolve: All rows and columns removed

Explored 0 nodes (0 simplex iterations) in 0.00 seconds
Thread count was 1 (of 4 available processors)

Optimal solution found (tolerance 1.00e-04)
Best objective 0.000000000000e+00, best bound 0.000000000000e+00, gap 0.0%

Gurobi 6.5.1 (mac64) logging started Fri May  6 00:23:12 2016


Gurobi 6.5.1 (mac64) logging started Fri May  6 00:23:14 2016


Gurobi 6.5.1 (mac64) logging started Fri May  6 00:23:33 2016


Gurobi 6.5.1 (mac64) logging started Fri May  6 00:23:49 2016

Optimize a model with 122 rows, 123 columns and 366 nonzeros
Coefficient statistics:
  Matrix range    [1e+00, 3e+01]
  Objective range [1e+00, 3e+01]
  Bounds range    [0e+00, 0e+00]
  RHS range       [1e+00, 5e+00]
Found heuristic solution: objective 90
Presolve removed 122 rows and 123 columns
Presolve time: 0.00s
Presolve: All rows and columns removed

Explored 0 nodes (0 simplex iterations) in 0.00 seconds
Thread count was 1 (of 4 available processors)

Optimal solution found (tolerance 1.00e-04)
Best objective 0.000000000000e+00, best bound 0.000000000000e+00, gap 0.0%

Gurobi 6.5.1 (mac64) logging started Fri May  6 00:31:39 2016

Optimize a model with 122 rows, 123 columns and 366 nonzeros
Coefficient statistics:
  Matrix range    [1e+00, 3e+01]
  Objective range [1e+00, 3e+01]
  Bounds range    [0e+00, 0e+00]
  RHS range       [1e+00, 5e+00]
Found heuristic solution: objective 90
Presolve removed 122 rows and 123 columns
Presolve time: 0.00s
Presolve: All rows and columns removed

Explored 0 nodes (0 simplex iterations) in 0.00 seconds
Thread count was 1 (of 4 available processors)

Optimal solution found (tolerance 1.00e-04)
Best objective 0.000000000000e+00, best bound 0.000000000000e+00, gap 0.0%

Gurobi 6.5.1 (mac64) logging started Fri May  6 00:32:37 2016

Optimize a model with 122 rows, 123 columns and 366 nonzeros
Coefficient statistics:
  Matrix range    [1e+00, 3e+01]
  Objective range [1e+00, 3e+01]
  Bounds range    [0e+00, 0e+00]
  RHS range       [1e+00, 5e+00]
Found heuristic solution: objective 90
Presolve removed 122 rows and 123 columns
Presolve time: 0.00s
Presolve: All rows and columns removed

Explored 0 nodes (0 simplex iterations) in 0.00 seconds
Thread count was 1 (of 4 available processors)

Optimal solution found (tolerance 1.00e-04)
Best objective 0.000000000000e+00, best bound 0.000000000000e+00, gap 0.0%

Gurobi 6.5.1 (mac64) logging started Fri May  6 00:32:58 2016

Optimize a model with 122 rows, 123 columns and 366 nonzeros
Coefficient statistics:
  Matrix range    [1e+00, 6e+01]
  Objective range [1e+00, 6e+01]
  Bounds range    [0e+00, 0e+00]
  RHS range       [1e+00, 5e+00]
Found heuristic solution: objective 71
Presolve removed 122 rows and 123 columns
Presolve time: 0.00s
Presolve: All rows and columns removed

Explored 0 nodes (0 simplex iterations) in 0.00 seconds
Thread count was 1 (of 4 available processors)

Optimal solution found (tolerance 1.00e-04)
Best objective 0.000000000000e+00, best bound 0.000000000000e+00, gap 0.0%

Gurobi 6.5.1 (mac64) logging started Fri May  6 00:33:23 2016

Optimize a model with 122 rows, 123 columns and 366 nonzeros
Coefficient statistics:
  Matrix range    [1e+00, 2e+01]
  Objective range [1e+00, 2e+01]
  Bounds range    [0e+00, 0e+00]
  RHS range       [1e+00, 5e+00]
Found heuristic solution: objective 84
Presolve removed 122 rows and 123 columns
Presolve time: 0.00s
Presolve: All rows and columns removed

Explored 0 nodes (0 simplex iterations) in 0.00 seconds
Thread count was 1 (of 4 available processors)

Optimal solution found (tolerance 1.00e-04)
Best objective 0.000000000000e+00, best bound 0.000000000000e+00, gap 0.0%

Gurobi 6.5.1 (mac64) logging started Fri May  6 00:36:21 2016

Optimize a model with 122 rows, 123 columns and 366 nonzeros
Coefficient statistics:
  Matrix range    [1e+00, 1e+01]
  Objective range [1e+00, 1e+01]
  Bounds range    [0e+00, 0e+00]
  RHS range       [1e+00, 5e+00]
Found heuristic solution: objective 75
Presolve removed 122 rows and 123 columns
Presolve time: 0.00s
Presolve: All rows and columns removed

Explored 0 nodes (0 simplex iterations) in 0.00 seconds
Thread count was 1 (of 4 available processors)

Optimal solution found (tolerance 1.00e-04)
Best objective 0.000000000000e+00, best bound 0.000000000000e+00, gap 0.0%

Gurobi 6.5.1 (mac64) logging started Fri May  6 00:36:34 2016

Optimize a model with 122 rows, 123 columns and 366 nonzeros
Coefficient statistics:
  Matrix range    [1e+00, 5e+00]
  Objective range [1e+00, 5e+00]
  Bounds range    [0e+00, 0e+00]
  RHS range       [1e+00, 5e+00]
Found heuristic solution: objective 87
Presolve removed 122 rows and 123 columns
Presolve time: 0.00s
Presolve: All rows and columns removed

Explored 0 nodes (0 simplex iterations) in 0.00 seconds
Thread count was 1 (of 4 available processors)

Optimal solution found (tolerance 1.00e-04)
Best objective 0.000000000000e+00, best bound 0.000000000000e+00, gap 0.0%

Gurobi 6.5.1 (mac64) logging started Fri May  6 00:37:30 2016

Optimize a model with 122 rows, 123 columns and 366 nonzeros
Coefficient statistics:
  Matrix range    [1e+00, 1e+01]
  Objective range [1e+00, 1e+01]
  Bounds range    [0e+00, 0e+00]
  RHS range       [1e+00, 1e+01]
Found heuristic solution: objective 145
Presolve removed 122 rows and 123 columns
Presolve time: 0.00s
Presolve: All rows and columns removed

Explored 0 nodes (0 simplex iterations) in 0.00 seconds
Thread count was 1 (of 4 available processors)

Optimal solution found (tolerance 1.00e-04)
Best objective 0.000000000000e+00, best bound 0.000000000000e+00, gap 0.0%

Gurobi 6.5.1 (mac64) logging started Fri May  6 00:37:58 2016

Optimize a model with 122 rows, 123 columns and 366 nonzeros
Coefficient statistics:
  Matrix range    [1e+00, 3e+01]
  Objective range [1e+00, 3e+01]
  Bounds range    [0e+00, 0e+00]
  RHS range       [1e+00, 1e+01]
Found heuristic solution: objective 116
Presolve removed 122 rows and 123 columns
Presolve time: 0.00s
Presolve: All rows and columns removed

Explored 0 nodes (0 simplex iterations) in 0.00 seconds
Thread count was 1 (of 4 available processors)

Optimal solution found (tolerance 1.00e-04)
Best objective 0.000000000000e+00, best bound 0.000000000000e+00, gap 0.0%
